c This Formular is generated by mcnf
c
c    horn? no 
c    forced? no 
c    mixed sat? no 
c    clause length = 3 
c
p cnf 20  91 
 -3 17 19 0
-12 -7 -11 0
-2 -9 -12 0
20 -10 -11 0
19 -9 8 0
-5 6 3 0
5 12 13 0
-6 -20 13 0
-13 -19 3 0
9 6 18 0
